sat
(:elim-unconstrained  3
 :max-memory          30.01
 :memory              18.91
 :num-allocs          30366349
 :rlimit-count        313434
 :sls-arith-steps     89658
 :sls-ddfw-flips      133916.00
 :sls-ddfw-reinits    5
 :sls-ddfw-shifts     62129.00
 :solve-eqs-elim-vars 151
 :solve-eqs-steps     2911
 :time                4.75
 :total-time          4.76)
